20  5
  0  68  1  92  2  25  3  96  4  72
  0  72  1  37  2  62  3  90  4  24
  0  43  1  31  2  26  3  30  4  48
  0  70  1  46  2  53  3  56  4  56
  0  31  1  67  2  5  3  47  4  67
  0  30  1  76  2  32  3  89  4  82
  0  80  1  44  2  92  3  98  4  66
  0  85  1  61  2  27  3  89  4  9
  0  86  1  83  2  68  3  32  4  83
  0  5  1  85  2  3  3  10  4  54
  0  29  1  31  2  53  3  52  4  73
  0  48  1  52  2  71  3  43  4  74
  0  52  1  4  2  24  3  2  4  16
  0  18  1  92  2  5  3  40  4  35
  0  95  1  65  2  56  3  9  4  96
  0  59  1  99  2  87  3  63  4  27
  0  85  1  81  2  71  3  56  4  35
  0  77  1  50  2  27  3  21  4  67
  0  87  1  3  2  34  3  82  4  71
  0  66  1  98  2  49  3  42  4  39
